NAME: cuum630.tsp
TYPE: TSP
COMMENT: User-generated TSP file
DIMENSION: 630
EDGE_WEIGHT_TYPE: EUC_2D
NODE_COORD_SECTION
1 163.0 505.0
2 493.0 20.0
3 562.0 64.0
4 29.0 330.0
5 268.0 583.0
6 610.0 215.0
7 559.0 440.0
8 218.0 518.0
9 212.0 147.0
10 280.0 576.0
11 209.0 81.0
12 41.0 249.0
13 213.0 622.0
14 401.0 549.0
15 548.0 265.0
16 411.0 47.0
17 515.0 130.0
18 448.0 629.0
19 23.0 170.0
20 332.0 269.0
21 620.0 460.0
22 512.0 52.0
23 296.0 394.0
24 629.0 186.0
25 366.0 334.0
26 538.0 80.0
27 507.0 40.0
28 40.0 244.0
29 321.0 322.0
30 21.0 438.0
31 520.0 129.0
32 116.0 390.0
33 160.0 452.0
34 88.0 165.0
35 350.0 303.0
36 103.0 328.0
37 201.0 574.0
38 529.0 374.0
39 285.0 327.0
40 271.0 282.0
41 580.0 506.0
42 501.0 328.0
43 502.0 156.0
44 213.0 295.0
45 194.0 198.0
46 469.0 576.0
47 99.0 380.0
48 446.0 82.0
49 521.0 600.0
50 244.0 95.0
51 34.0 293.0
52 558.0 100.0
53 253.0 324.0
54 521.0 574.0
55 546.0 180.0
56 414.0 251.0
57 603.0 25.0
58 7.0 250.0
59 546.0 606.0
60 540.0 409.0
61 385.0 386.0
62 285.0 375.0
63 192.0 62.0
64 128.0 55.0
65 323.0 626.0
66 275.0 625.0
67 605.0 8.0
68 189.0 167.0
69 65.0 233.0
70 597.0 301.0
71 363.0 93.0
72 398.0 496.0
73 457.0 406.0
74 17.0 44.0
75 599.0 450.0
76 408.0 363.0
77 400.0 562.0
78 348.0 386.0
79 282.0 419.0
80 502.0 244.0
81 159.0 548.0
82 344.0 449.0
83 211.0 203.0
84 446.0 156.0
85 407.0 614.0
86 279.0 226.0
87 450.0 487.0
88 192.0 490.0
89 170.0 541.0
90 277.0 466.0
91 194.0 513.0
92 249.0 41.0
93 234.0 352.0
94 215.0 373.0
95 191.0 69.0
96 294.0 31.0
97 464.0 443.0
98 347.0 15.0
99 121.0 612.0
100 326.0 117.0
101 501.0 314.0
102 519.0 56.0
103 378.0 535.0
104 197.0 62.0
105 175.0 347.0
106 239.0 237.0
107 413.0 199.0
108 364.0 507.0
109 147.0 235.0
110 596.0 626.0
111 93.0 15.0
112 236.0 430.0
113 282.0 326.0
114 316.0 111.0
115 172.0 113.0
116 241.0 361.0
117 99.0 336.0
118 402.0 561.0
119 626.0 395.0
120 203.0 607.0
121 82.0 119.0
122 318.0 589.0
123 219.0 368.0
124 361.0 436.0
125 101.0 54.0
126 540.0 49.0
127 583.0 531.0
128 572.0 589.0
129 483.0 431.0
130 250.0 568.0
131 126.0 398.0
132 116.0 321.0
133 539.0 402.0
134 420.0 473.0
135 70.0 61.0
136 629.0 317.0
137 142.0 13.0
138 352.0 104.0
139 333.0 71.0
140 450.0 534.0
141 539.0 461.0
142 87.0 58.0
143 538.0 502.0
144 560.0 499.0
145 342.0 98.0
146 561.0 92.0
147 162.0 438.0
148 602.0 455.0
149 585.0 432.0
150 434.0 107.0
151 551.0 538.0
152 458.0 43.0
153 410.0 371.0
154 330.0 88.0
155 196.0 313.0
156 329.0 105.0
157 236.0 515.0
158 86.0 553.0
159 392.0 4.0
160 534.0 520.0
161 440.0 419.0
162 12.0 52.0
163 143.0 490.0
164 213.0 95.0
165 602.0 527.0
166 332.0 561.0
167 374.0 31.0
168 564.0 514.0
169 527.0 331.0
170 79.0 426.0
171 133.0 442.0
172 169.0 315.0
173 465.0 560.0
174 591.0 160.0
175 307.0 369.0
176 259.0 45.0
177 347.0 250.0
178 159.0 527.0
179 7.0 121.0
180 187.0 85.0
181 294.0 328.0
182 492.0 583.0
183 129.0 340.0
184 54.0 577.0
185 413.0 554.0
186 426.0 278.0
187 569.0 306.0
188 404.0 489.0
189 148.0 507.0
190 247.0 251.0
191 343.0 35.0
192 272.0 83.0
193 65.0 282.0
194 14.0 401.0
195 387.0 91.0
196 116.0 553.0
197 162.0 435.0
198 316.0 121.0
199 318.0 14.0
200 594.0 541.0
201 131.0 4.0
202 493.0 385.0
203 58.0 425.0
204 172.0 136.0
205 457.0 202.0
206 630.0 113.0
207 613.0 515.0
208 418.0 587.0
209 442.0 548.0
210 142.0 64.0
211 250.0 445.0
212 530.0 260.0
213 269.0 214.0
214 116.0 548.0
215 488.0 487.0
216 223.0 604.0
217 387.0 318.0
218 430.0 66.0
219 288.0 388.0
220 170.0 72.0
221 524.0 612.0
222 60.0 351.0
223 255.0 274.0
224 49.0 107.0
225 298.0 613.0
226 103.0 422.0
227 120.0 333.0
228 92.0 309.0
229 276.0 157.0
230 291.0 271.0
231 50.0 391.0
232 293.0 83.0
233 553.0 34.0
234 271.0 499.0
235 284.0 254.0
236 332.0 283.0
237 8.0 22.0
238 133.0 291.0
239 464.0 445.0
240 333.0 339.0
241 270.0 191.0
242 25.0 327.0
243 380.0 70.0
244 23.0 510.0
245 500.0 184.0
246 588.0 187.0
247 368.0 629.0
248 443.0 405.0
249 519.0 499.0
250 453.0 588.0
251 505.0 552.0
252 187.0 245.0
253 624.0 307.0
254 45.0 63.0
255 583.0 46.0
256 52.0 295.0
257 175.0 320.0
258 56.0 368.0
259 540.0 232.0
260 30.0 607.0
261 616.0 605.0
262 403.0 528.0
263 330.0 490.0
264 249.0 90.0
265 588.0 44.0
266 444.0 164.0
267 46.0 180.0
268 284.0 1.0
269 435.0 309.0
270 578.0 613.0
271 127.0 122.0
272 151.0 217.0
273 505.0 564.0
274 265.0 522.0
275 95.0 7.0
276 621.0 386.0
277 356.0 214.0
278 516.0 539.0
279 107.0 172.0
280 353.0 487.0
281 472.0 365.0
282 288.0 289.0
283 585.0 540.0
284 230.0 25.0
285 482.0 90.0
286 568.0 132.0
287 150.0 612.0
288 201.0 508.0
289 22.0 347.0
290 331.0 488.0
291 377.0 617.0
292 280.0 541.0
293 368.0 476.0
294 19.0 16.0
295 162.0 293.0
296 203.0 359.0
297 261.0 510.0
298 348.0 427.0
299 170.0 3.0
300 415.0 422.0
301 431.0 224.0
302 422.0 102.0
303 164.0 588.0
304 278.0 551.0
305 105.0 496.0
306 79.0 9.0
307 490.0 612.0
308 237.0 137.0
309 2.0 416.0
310 397.0 8.0
311 65.0 132.0
312 321.0 597.0
313 497.0 443.0
314 480.0 606.0
315 276.0 87.0
316 489.0 454.0
317 251.0 312.0
318 406.0 603.0
319 376.0 14.0
320 324.0 263.0
321 455.0 460.0
322 228.0 129.0
323 521.0 132.0
324 249.0 527.0
325 457.0 68.0
326 229.0 408.0
327 598.0 566.0
328 395.0 175.0
329 29.0 271.0
330 215.0 567.0
331 503.0 219.0
332 198.0 164.0
333 278.0 467.0
334 173.0 324.0
335 601.0 358.0
336 264.0 297.0
337 75.0 110.0
338 467.0 17.0
339 226.0 144.0
340 17.0 35.0
341 328.0 491.0
342 11.0 170.0
343 175.0 175.0
344 508.0 409.0
345 608.0 29.0
346 371.0 627.0
347 540.0 563.0
348 466.0 47.0
349 374.0 112.0
350 133.0 129.0
351 25.0 280.0
352 214.0 415.0
353 126.0 269.0
354 578.0 313.0
355 295.0 623.0
356 170.0 601.0
357 157.0 480.0
358 499.0 174.0
359 454.0 509.0
360 343.0 549.0
361 241.0 328.0
362 375.0 337.0
363 467.0 114.0
364 565.0 115.0
365 567.0 93.0
366 304.0 413.0
367 336.0 401.0
368 199.0 115.0
369 519.0 355.0
370 281.0 374.0
371 85.0 170.0
372 607.0 496.0
373 367.0 314.0
374 282.0 251.0
375 14.0 108.0
376 167.0 449.0
377 198.0 149.0
378 331.0 233.0
379 169.0 352.0
380 604.0 218.0
381 363.0 550.0
382 451.0 59.0
383 402.0 391.0
384 251.0 620.0
385 566.0 174.0
386 461.0 80.0
387 395.0 475.0
388 182.0 471.0
389 315.0 471.0
390 17.0 118.0
391 471.0 10.0
392 266.0 295.0
393 393.0 42.0
394 608.0 431.0
395 216.0 582.0
396 193.0 300.0
397 606.0 396.0
398 150.0 69.0
399 162.0 158.0
400 134.0 74.0
401 367.0 233.0
402 272.0 388.0
403 110.0 425.0
404 378.0 591.0
405 320.0 244.0
406 239.0 123.0
407 46.0 223.0
408 365.0 473.0
409 267.0 188.0
410 183.0 39.0
411 438.0 610.0
412 382.0 609.0
413 247.0 147.0
414 254.0 325.0
415 507.0 197.0
416 7.0 563.0
417 195.0 491.0
418 193.0 289.0
419 459.0 341.0
420 338.0 314.0
421 218.0 174.0
422 352.0 250.0
423 156.0 494.0
424 607.0 67.0
425 75.0 625.0
426 145.0 224.0
427 625.0 111.0
428 450.0 451.0
429 326.0 97.0
430 81.0 402.0
431 234.0 344.0
432 158.0 519.0
433 115.0 553.0
434 138.0 491.0
435 435.0 51.0
436 130.0 425.0
437 282.0 612.0
438 173.0 497.0
439 25.0 630.0
440 117.0 29.0
441 316.0 210.0
442 444.0 423.0
443 243.0 106.0
444 185.0 430.0
445 103.0 445.0
446 185.0 528.0
447 573.0 502.0
448 291.0 425.0
449 270.0 433.0
450 592.0 345.0
451 484.0 345.0
452 171.0 155.0
453 484.0 592.0
454 91.0 456.0
455 540.0 566.0
456 32.0 181.0
457 72.0 612.0
458 399.0 174.0
459 70.0 446.0
460 498.0 453.0
461 185.0 332.0
462 596.0 397.0
463 130.0 294.0
464 548.0 14.0
465 400.0 480.0
466 71.0 368.0
467 77.0 299.0
468 476.0 461.0
469 162.0 561.0
470 381.0 51.0
471 191.0 205.0
472 463.0 296.0
473 562.0 499.0
474 11.0 134.0
475 458.0 19.0
476 24.0 255.0
477 388.0 247.0
478 340.0 223.0
479 327.0 481.0
480 493.0 253.0
481 266.0 396.0
482 325.0 313.0
483 563.0 206.0
484 123.0 473.0
485 554.0 12.0
486 92.0 563.0
487 222.0 287.0
488 533.0 350.0
489 21.0 9.0
490 90.0 467.0
491 219.0 329.0
492 395.0 197.0
493 487.0 508.0
494 471.0 546.0
495 138.0 69.0
496 118.0 164.0
497 134.0 68.0
498 434.0 194.0
499 290.0 251.0
500 85.0 566.0
501 27.0 627.0
502 553.0 100.0
503 185.0 268.0
504 210.0 1.0
505 304.0 104.0
506 281.0 31.0
507 252.0 585.0
508 624.0 112.0
509 627.0 267.0
510 275.0 190.0
511 234.0 167.0
512 202.0 555.0
513 577.0 286.0
514 102.0 368.0
515 166.0 402.0
516 106.0 109.0
517 196.0 451.0
518 265.0 208.0
519 242.0 628.0
520 128.0 23.0
521 173.0 544.0
522 472.0 431.0
523 297.0 146.0
524 452.0 101.0
525 195.0 182.0
526 429.0 433.0
527 389.0 380.0
528 148.0 573.0
529 486.0 219.0
530 112.0 464.0
531 18.0 245.0
532 595.0 408.0
533 267.0 594.0
534 350.0 435.0
535 414.0 214.0
536 531.0 185.0
537 518.0 167.0
538 14.0 297.0
539 161.0 180.0
540 560.0 139.0
541 22.0 558.0
542 595.0 482.0
543 288.0 581.0
544 522.0 149.0
545 247.0 173.0
546 170.0 497.0
547 126.0 535.0
548 466.0 276.0
549 8.0 405.0
550 264.0 473.0
551 321.0 605.0
552 455.0 520.0
553 133.0 599.0
554 31.0 107.0
555 497.0 325.0
556 480.0 521.0
557 58.0 421.0
558 118.0 511.0
559 526.0 360.0
560 20.0 418.0
561 415.0 515.0
562 234.0 317.0
563 554.0 601.0
564 21.0 517.0
565 547.0 580.0
566 508.0 369.0
567 576.0 605.0
568 152.0 507.0
569 342.0 503.0
570 244.0 610.0
571 241.0 14.0
572 418.0 191.0
573 536.0 171.0
574 164.0 207.0
575 552.0 206.0
576 224.0 89.0
577 226.0 250.0
578 73.0 160.0
579 354.0 217.0
580 340.0 452.0
581 548.0 254.0
582 331.0 16.0
583 398.0 510.0
584 194.0 290.0
585 458.0 224.0
586 577.0 241.0
587 463.0 477.0
588 163.0 356.0
589 133.0 288.0
590 522.0 472.0
591 341.0 242.0
592 382.0 81.0
593 617.0 182.0
594 88.0 476.0
595 251.0 243.0
596 168.0 358.0
597 597.0 282.0
598 121.0 341.0
599 135.0 258.0
600 343.0 454.0
601 326.0 517.0
602 615.0 30.0
603 484.0 275.0
604 614.0 205.0
605 482.0 241.0
606 65.0 222.0
607 528.0 324.0
608 215.0 61.0
609 273.0 442.0
610 25.0 104.0
611 377.0 239.0
612 121.0 552.0
613 383.0 74.0
614 250.0 516.0
615 4.0 512.0
616 592.0 337.0
617 128.0 365.0
618 554.0 540.0
619 624.0 160.0
620 125.0 560.0
621 592.0 169.0
622 14.0 523.0
623 272.0 193.0
624 609.0 159.0
625 145.0 374.0
626 217.0 580.0
627 271.0 144.0
628 468.0 485.0
629 574.0 176.0
630 289.0 364.0
EOF





